1 -662 -671 0
-662 -669 -671 0
-22 662 -671 0
21 22 -671 0
662 -671 0
d -22 662 -671 0
-662 -671 0
d 1 -662 -671 0
-671 0
21 -22 0
-22 0
21 0
-1 0
-641 0
651 0
42 0
2 0
661 0
621 0
-31 0
-662 0
-52 0
-622 0
-71 0
-571 0
-601 0
-611 0
-92 0
-41 0
51 0
11 0
12 0
642 0
72 0
32 0
602 0
91 0
591 0
551 0
17 0
581 0
18 0
631 0
112 0
61 0
19 0
-101 0
-371 0
-401 0
0
